K = 3;
InputOne = array2d(1..3, 1..3, [0.1, 0.1, 0.2, 0.5, 0.1, 0.1, 0.5, 0.2, 0.2]);
ManpowerOne = [0.6, 0.3, 0.2];
InputTwo = array2d(1..3, 1..3, [0.0, 0.1, 0.2, 0.7, 0.1, 0.1, 0.9, 0.2, 0.2]);
ManpowerTwo = [0.4, 0.2, 0.1];
Stock = [150, 80, 100];
Capacity = [300, 350, 280];
ManpowerLimit = 470000000.0;
Demand = [60000000.0, 60000000.0, 30000000.0];
